(set-logic HORN)
(declare-fun assign_23_5_214_abs0 (Int Int Int Int Int) Bool)
(declare-fun assert_22_5_205_abs0 (Int Int Int Int Int) Bool)
(declare-fun assert_21_12_185_abs0 (Int Int Int Int Int) Bool)
(declare-fun while_20_1_217_abs0 (Int Int Int Int Int) Bool)
(declare-fun assign_19_1_142_abs0 (Int Int Int Int Int) Bool)
(declare-fun assign_16_5_133_abs0 (Int Int Int Int Int) Bool)
(declare-fun arrayassign_15_5_124_abs0 (Int Int Int Int Int) Bool)
(declare-fun assert_14_12_108_abs0 (Int Int Int Int Int) Bool)
(declare-fun while_13_1_136_abs0 (Int Int Int Int Int) Bool)
(declare-fun assign_12_1_65_abs0 (Int Int Int Int Int) Bool)
(declare-fun assign_10_8_59_abs0 (Int Int Int Int Int) Bool)
(declare-fun assign_9_1_47_abs0 (Int Int Int Int Int) Bool)
(declare-fun end_abs0 (Int Int Int Int Int) Bool)
(declare-fun start_abs0 (Int Int Int Int Int) Bool)
(assert (forall ((a (Array Int Int)) (c Int) (N Int) (i Int) (vabs_f_f Int)) (start_abs0 vabs_f_f (select a vabs_f_f) c N i)))
(assert (forall ((i Int) (N Int) (c Int) (a (Array Int Int)) (vabs_0_f_f Int)) (=> (start_abs0 vabs_0_f_f (select a vabs_0_f_f) c N i) (assign_9_1_47_abs0 vabs_0_f_f (select a vabs_0_f_f) c N i))))
(assert (forall ((rnd Int) (i Int) (N Int) (c Int) (a (Array Int Int)) (vabs_0_f_f Int)) (=> (assign_9_1_47_abs0 vabs_0_f_f (select a vabs_0_f_f) c N i) (assign_10_8_59_abs0 vabs_0_f_f (select a vabs_0_f_f) c rnd i))))
(assert (forall ((rnd Int) (i Int) (N Int) (c Int) (a (Array Int Int)) (vabs_0_f_f Int)) (=> (assign_10_8_59_abs0 vabs_0_f_f (select a vabs_0_f_f) c N i) (assign_12_1_65_abs0 vabs_0_f_f (select a vabs_0_f_f) rnd N i))))
(assert (forall ((i Int) (N Int) (c Int) (a (Array Int Int)) (vabs_0_f_f Int)) (=> (assign_12_1_65_abs0 vabs_0_f_f (select a vabs_0_f_f) c N i) (while_13_1_136_abs0 vabs_0_f_f (select a vabs_0_f_f) c N 0))))
(assert (forall ((a (Array Int Int)) (c Int) (N Int) (i Int) (vabs_0_f_f Int)) (=> (and (while_13_1_136_abs0 vabs_0_f_f (select a vabs_0_f_f) c N i) (< i N)) (assert_14_12_108_abs0 vabs_0_f_f (select a vabs_0_f_f) c N i))))
(assert (forall ((a (Array Int Int)) (c Int) (N Int) (i Int) (vabs_0_f_f Int)) (=> (and (while_13_1_136_abs0 vabs_0_f_f (select a vabs_0_f_f) c N i) (not (< i N))) (assign_19_1_142_abs0 vabs_0_f_f (select a vabs_0_f_f) c N i))))
(assert (forall ((k Int) (i Int) (N Int) (c Int) (a (Array Int Int))) (=> (and (assert_14_12_108_abs0 k (select a k) c N i) (<= 0 k) (< k i)) (= (select a k) (+ (* 2 k) c)))))
(assert (forall ((i Int) (N Int) (c Int) (a (Array Int Int)) (vabs_0_f_f Int)) (=> (assert_14_12_108_abs0 vabs_0_f_f (select a vabs_0_f_f) c N i) (arrayassign_15_5_124_abs0 vabs_0_f_f (select a vabs_0_f_f) c N i))))
(assert (forall ((i Int) (N Int) (c Int) (a (Array Int Int)) (vabs_0_f_f Int)) (=> (arrayassign_15_5_124_abs0 vabs_0_f_f (select a vabs_0_f_f) c N i) (assign_16_5_133_abs0 vabs_0_f_f (select (store a i (+ (* 2 i) c)) vabs_0_f_f) c N i))))
(assert (forall ((i Int) (N Int) (c Int) (a (Array Int Int)) (vabs_0_f_f Int)) (=> (assign_16_5_133_abs0 vabs_0_f_f (select a vabs_0_f_f) c N i) (while_13_1_136_abs0 vabs_0_f_f (select a vabs_0_f_f) c N (+ i 1)))))
(assert (forall ((i Int) (N Int) (c Int) (a (Array Int Int)) (vabs_0_f_f Int)) (=> (assign_19_1_142_abs0 vabs_0_f_f (select a vabs_0_f_f) c N i) (while_20_1_217_abs0 vabs_0_f_f (select a vabs_0_f_f) c N 0))))
(assert (forall ((a (Array Int Int)) (c Int) (N Int) (i Int) (vabs_0_f_f Int)) (=> (and (while_20_1_217_abs0 vabs_0_f_f (select a vabs_0_f_f) c N i) (< i N)) (assert_21_12_185_abs0 vabs_0_f_f (select a vabs_0_f_f) c N i))))
(assert (forall ((a (Array Int Int)) (c Int) (N Int) (i Int) (vabs_0_f_f Int)) (=> (and (while_20_1_217_abs0 vabs_0_f_f (select a vabs_0_f_f) c N i) (not (< i N))) (end_abs0 vabs_0_f_f (select a vabs_0_f_f) c N i))))
(assert (forall ((k Int) (i Int) (N Int) (c Int) (a (Array Int Int))) (=> (and (assert_21_12_185_abs0 k (select a k) c N i) (<= 0 k) (< k N)) (= (select a k) (+ (* 2 k) c)))))
(assert (forall ((i Int) (N Int) (c Int) (a (Array Int Int)) (vabs_0_f_f Int)) (=> (assert_21_12_185_abs0 vabs_0_f_f (select a vabs_0_f_f) c N i) (assert_22_5_205_abs0 vabs_0_f_f (select a vabs_0_f_f) c N i))))
(assert (forall ((i Int) (N Int) (c Int) (a (Array Int Int))) (=> (assert_22_5_205_abs0 i (select a i) c N i) (= (select a i) (+ (* 2 i) c)))))
(assert (forall ((i Int) (N Int) (c Int) (a (Array Int Int)) (vabs_0_f_f Int)) (=> (assert_22_5_205_abs0 vabs_0_f_f (select a vabs_0_f_f) c N i) (assign_23_5_214_abs0 vabs_0_f_f (select a vabs_0_f_f) c N i))))
(assert (forall ((i Int) (N Int) (c Int) (a (Array Int Int)) (vabs_0_f_f Int)) (=> (assign_23_5_214_abs0 vabs_0_f_f (select a vabs_0_f_f) c N i) (while_20_1_217_abs0 vabs_0_f_f (select a vabs_0_f_f) c N (+ i 1)))))
(check-sat)